(declare-fun var0 () String)
(assert (RegexIn var0 (RegexConcat (RegexUnion (RegexUnion (Str2Reg "dd") (Str2Reg "eee")) (RegexUnion (Str2Reg "fff") (Str2Reg "gg"))) (RegexConcat (RegexUnion (RegexStar (Str2Reg "bb")) (RegexPlus (Str2Reg "ccc"))) (RegexConcat (RegexUnion (RegexStar (Str2Reg "9")) (RegexPlus (Str2Reg "aaa"))) (RegexConcat (RegexStar (RegexUnion (Str2Reg "77") (Str2Reg "888"))) (RegexConcat (RegexPlus (RegexStar (Str2Reg "666"))) (RegexConcat (RegexPlus (RegexPlus (Str2Reg "55"))) (RegexConcat (RegexStar (RegexStar (Str2Reg "44"))) (RegexConcat (RegexUnion (RegexPlus (Str2Reg "22")) (RegexPlus (Str2Reg "333"))) (RegexConcat (RegexStar (RegexStar (Str2Reg "111"))) (RegexStar (RegexStar (Str2Reg "000"))))))))))))))
(assert (RegexIn var0 (RegexConcat (RegexPlus (RegexStar (Str2Reg "i"))) (RegexConcat (RegexUnion (RegexStar (Str2Reg "gg")) (RegexPlus (Str2Reg "h"))) (RegexConcat (RegexUnion (RegexUnion (Str2Reg "c") (Str2Reg "dd")) (RegexUnion (Str2Reg "ee") (Str2Reg "fff"))) (RegexConcat (RegexPlus (RegexUnion (Str2Reg "aa") (Str2Reg "b"))) (RegexConcat (RegexPlus (RegexStar (Str2Reg "9"))) (RegexConcat (RegexUnion (RegexPlus (Str2Reg "77")) (RegexPlus (Str2Reg "8"))) (RegexConcat (RegexStar (RegexStar (Str2Reg "666"))) (RegexConcat (RegexUnion (RegexStar (Str2Reg "333")) (RegexUnion (Str2Reg "44") (Str2Reg "5"))) (RegexConcat (RegexPlus (RegexUnion (Str2Reg "11") (Str2Reg "22"))) (RegexPlus (RegexStar (Str2Reg "0"))))))))))))))
(assert (RegexIn var0 (RegexConcat (RegexPlus (RegexStar (Str2Reg "gg"))) (RegexConcat (RegexUnion (RegexUnion (Str2Reg "ddd") (Str2Reg "eee")) (RegexPlus (Str2Reg "fff"))) (RegexConcat (RegexStar (RegexPlus (Str2Reg "c"))) (RegexConcat (RegexPlus (RegexUnion (Str2Reg "aa") (Str2Reg "bbb"))) (RegexConcat (RegexPlus (RegexPlus (Str2Reg "99"))) (RegexConcat (RegexStar (RegexUnion (Str2Reg "7") (Str2Reg "888"))) (RegexConcat (RegexStar (RegexStar (Str2Reg "666"))) (RegexConcat (RegexUnion (RegexPlus (Str2Reg "4")) (RegexPlus (Str2Reg "555"))) (RegexConcat (RegexStar (RegexUnion (Str2Reg "222") (Str2Reg "333"))) (RegexStar (RegexUnion (Str2Reg "000") (Str2Reg "111"))))))))))))))
(assert (RegexIn var0 (RegexConcat (RegexStar (RegexStar (Str2Reg "eee"))) (RegexConcat (RegexPlus (RegexStar (Str2Reg "dd"))) (RegexConcat (RegexPlus (RegexPlus (Str2Reg "ccc"))) (RegexConcat (RegexUnion (RegexStar (Str2Reg "a")) (RegexStar (Str2Reg "b"))) (RegexConcat (RegexStar (RegexStar (Str2Reg "99"))) (RegexConcat (RegexUnion (RegexUnion (Str2Reg "6") (Str2Reg "77")) (RegexPlus (Str2Reg "8"))) (RegexConcat (RegexPlus (RegexStar (Str2Reg "555"))) (RegexConcat (RegexStar (RegexUnion (Str2Reg "333") (Str2Reg "44"))) (RegexConcat (RegexUnion (RegexPlus (Str2Reg "1")) (RegexStar (Str2Reg "2"))) (RegexStar (RegexPlus (Str2Reg "000"))))))))))))))
(assert (RegexIn var0 (RegexConcat (RegexUnion (RegexStar (Str2Reg "hh")) (RegexPlus (Str2Reg "i"))) (RegexConcat (RegexUnion (RegexPlus (Str2Reg "f")) (RegexStar (Str2Reg "gg"))) (RegexConcat (RegexUnion (RegexStar (Str2Reg "ccc")) (RegexUnion (Str2Reg "dd") (Str2Reg "ee"))) (RegexConcat (RegexUnion (RegexPlus (Str2Reg "aaa")) (RegexStar (Str2Reg "bbb"))) (RegexConcat (RegexStar (RegexUnion (Str2Reg "888") (Str2Reg "999"))) (RegexConcat (RegexPlus (RegexPlus (Str2Reg "77"))) (RegexConcat (RegexPlus (RegexUnion (Str2Reg "5") (Str2Reg "666"))) (RegexConcat (RegexStar (RegexUnion (Str2Reg "3") (Str2Reg "444"))) (RegexConcat (RegexPlus (RegexStar (Str2Reg "22"))) (RegexUnion (RegexPlus (Str2Reg "00")) (RegexPlus (Str2Reg "11"))))))))))))))
(assert (RegexIn var0 (RegexConcat (RegexPlus (RegexStar (Str2Reg "e"))) (RegexConcat (RegexPlus (RegexUnion (Str2Reg "c") (Str2Reg "d"))) (RegexConcat (RegexUnion (RegexUnion (Str2Reg "9") (Str2Reg "aaa")) (RegexStar (Str2Reg "b"))) (RegexConcat (RegexPlus (RegexPlus (Str2Reg "88"))) (RegexConcat (RegexPlus (RegexUnion (Str2Reg "6") (Str2Reg "7"))) (RegexConcat (RegexPlus (RegexPlus (Str2Reg "555"))) (RegexConcat (RegexPlus (RegexStar (Str2Reg "444"))) (RegexConcat (RegexUnion (RegexPlus (Str2Reg "2")) (RegexStar (Str2Reg "33"))) (RegexConcat (RegexStar (RegexPlus (Str2Reg "1"))) (RegexPlus (RegexStar (Str2Reg "0"))))))))))))))
(assert (RegexIn var0 (RegexConcat (RegexStar (RegexStar (Str2Reg "ff"))) (RegexConcat (RegexStar (RegexStar (Str2Reg "e"))) (RegexConcat (RegexUnion (RegexPlus (Str2Reg "cc")) (RegexPlus (Str2Reg "dd"))) (RegexConcat (RegexStar (RegexPlus (Str2Reg "bb"))) (RegexConcat (RegexStar (RegexStar (Str2Reg "aa"))) (RegexConcat (RegexUnion (RegexPlus (Str2Reg "77")) (RegexUnion (Str2Reg "888") (Str2Reg "9"))) (RegexConcat (RegexUnion (RegexStar (Str2Reg "444")) (RegexUnion (Str2Reg "5") (Str2Reg "6"))) (RegexConcat (RegexPlus (RegexStar (Str2Reg "333"))) (RegexConcat (RegexStar (RegexUnion (Str2Reg "111") (Str2Reg "2"))) (RegexStar (RegexPlus (Str2Reg "000"))))))))))))))
(assert (RegexIn var0 (RegexConcat (RegexUnion (RegexStar (Str2Reg "i")) (RegexUnion (Str2Reg "jj") (Str2Reg "kkk"))) (RegexConcat (RegexPlus (RegexStar (Str2Reg "hhh"))) (RegexConcat (RegexPlus (RegexPlus (Str2Reg "ggg"))) (RegexConcat (RegexUnion (RegexUnion (Str2Reg "cc") (Str2Reg "d")) (RegexUnion (Str2Reg "ee") (Str2Reg "fff"))) (RegexConcat (RegexPlus (RegexUnion (Str2Reg "aa") (Str2Reg "b"))) (RegexConcat (RegexPlus (RegexUnion (Str2Reg "888") (Str2Reg "99"))) (RegexConcat (RegexUnion (RegexStar (Str2Reg "666")) (RegexPlus (Str2Reg "77"))) (RegexConcat (RegexUnion (RegexPlus (Str2Reg "333")) (RegexUnion (Str2Reg "44") (Str2Reg "55"))) (RegexConcat (RegexPlus (RegexUnion (Str2Reg "1") (Str2Reg "222"))) (RegexStar (RegexStar (Str2Reg "0"))))))))))))))
(assert (RegexIn var0 (RegexConcat (RegexUnion (RegexStar (Str2Reg "iii")) (RegexPlus (Str2Reg "jj"))) (RegexConcat (RegexUnion (RegexStar (Str2Reg "gg")) (RegexPlus (Str2Reg "h"))) (RegexConcat (RegexUnion (RegexPlus (Str2Reg "e")) (RegexPlus (Str2Reg "ff"))) (RegexConcat (RegexStar (RegexStar (Str2Reg "d"))) (RegexConcat (RegexStar (RegexStar (Str2Reg "cc"))) (RegexConcat (RegexUnion (RegexUnion (Str2Reg "88") (Str2Reg "99")) (RegexUnion (Str2Reg "a") (Str2Reg "bbb"))) (RegexConcat (RegexUnion (RegexUnion (Str2Reg "5") (Str2Reg "666")) (RegexPlus (Str2Reg "777"))) (RegexConcat (RegexStar (RegexUnion (Str2Reg "3") (Str2Reg "4"))) (RegexConcat (RegexPlus (RegexUnion (Str2Reg "11") (Str2Reg "22"))) (RegexStar (RegexPlus (Str2Reg "0"))))))))))))))
(assert (RegexIn var0 (RegexConcat (RegexPlus (RegexUnion (Str2Reg "gg") (Str2Reg "h"))) (RegexConcat (RegexUnion (RegexUnion (Str2Reg "cc") (Str2Reg "ddd")) (RegexUnion (Str2Reg "ee") (Str2Reg "fff"))) (RegexConcat (RegexStar (RegexPlus (Str2Reg "bb"))) (RegexConcat (RegexPlus (RegexStar (Str2Reg "aa"))) (RegexConcat (RegexStar (RegexStar (Str2Reg "999"))) (RegexConcat (RegexStar (RegexUnion (Str2Reg "77") (Str2Reg "88"))) (RegexConcat (RegexPlus (RegexUnion (Str2Reg "55") (Str2Reg "6"))) (RegexConcat (RegexStar (RegexStar (Str2Reg "44"))) (RegexConcat (RegexPlus (RegexUnion (Str2Reg "2") (Str2Reg "333"))) (RegexPlus (RegexUnion (Str2Reg "000") (Str2Reg "1"))))))))))))))
(assert (RegexIn var0 (RegexConcat (RegexUnion (RegexStar (Str2Reg "h")) (RegexPlus (Str2Reg "iii"))) (RegexConcat (RegexUnion (RegexUnion (Str2Reg "eee") (Str2Reg "f")) (RegexStar (Str2Reg "gg"))) (RegexConcat (RegexStar (RegexStar (Str2Reg "d"))) (RegexConcat (RegexStar (RegexUnion (Str2Reg "bbb") (Str2Reg "cc"))) (RegexConcat (RegexUnion (RegexUnion (Str2Reg "8") (Str2Reg "99")) (RegexStar (Str2Reg "aa"))) (RegexConcat (RegexPlus (RegexPlus (Str2Reg "77"))) (RegexConcat (RegexUnion (RegexUnion (Str2Reg "44") (Str2Reg "55")) (RegexPlus (Str2Reg "6"))) (RegexConcat (RegexPlus (RegexStar (Str2Reg "3"))) (RegexConcat (RegexPlus (RegexUnion (Str2Reg "1") (Str2Reg "22"))) (RegexPlus (RegexStar (Str2Reg "00"))))))))))))))
(assert (RegexIn var0 (RegexConcat (RegexPlus (RegexPlus (Str2Reg "k"))) (RegexConcat (RegexUnion (RegexUnion (Str2Reg "hh") (Str2Reg "i")) (RegexStar (Str2Reg "jjj"))) (RegexConcat (RegexPlus (RegexUnion (Str2Reg "f") (Str2Reg "ggg"))) (RegexConcat (RegexUnion (RegexPlus (Str2Reg "dd")) (RegexPlus (Str2Reg "eee"))) (RegexConcat (RegexUnion (RegexStar (Str2Reg "bb")) (RegexStar (Str2Reg "c"))) (RegexConcat (RegexUnion (RegexStar (Str2Reg "88")) (RegexUnion (Str2Reg "9") (Str2Reg "aaa"))) (RegexConcat (RegexUnion (RegexPlus (Str2Reg "6")) (RegexPlus (Str2Reg "77"))) (RegexConcat (RegexUnion (RegexUnion (Str2Reg "33") (Str2Reg "44")) (RegexPlus (Str2Reg "555"))) (RegexConcat (RegexPlus (RegexStar (Str2Reg "222"))) (RegexPlus (RegexUnion (Str2Reg "000") (Str2Reg "111"))))))))))))))
(assert (RegexIn var0 (RegexConcat (RegexUnion (RegexStar (Str2Reg "d")) (RegexUnion (Str2Reg "ee") (Str2Reg "fff"))) (RegexConcat (RegexStar (RegexUnion (Str2Reg "bb") (Str2Reg "cc"))) (RegexConcat (RegexUnion (RegexStar (Str2Reg "999")) (RegexStar (Str2Reg "aaa"))) (RegexConcat (RegexPlus (RegexUnion (Str2Reg "777") (Str2Reg "8"))) (RegexConcat (RegexUnion (RegexStar (Str2Reg "55")) (RegexStar (Str2Reg "6"))) (RegexConcat (RegexPlus (RegexPlus (Str2Reg "4"))) (RegexConcat (RegexStar (RegexStar (Str2Reg "33"))) (RegexConcat (RegexStar (RegexStar (Str2Reg "22"))) (RegexConcat (RegexStar (RegexPlus (Str2Reg "1"))) (RegexStar (RegexStar (Str2Reg "000"))))))))))))))
(assert (RegexIn var0 (RegexConcat (RegexUnion (RegexPlus (Str2Reg "c")) (RegexStar (Str2Reg "dd"))) (RegexConcat (RegexStar (RegexPlus (Str2Reg "b"))) (RegexConcat (RegexPlus (RegexStar (Str2Reg "a"))) (RegexConcat (RegexStar (RegexUnion (Str2Reg "88") (Str2Reg "99"))) (RegexConcat (RegexStar (RegexUnion (Str2Reg "66") (Str2Reg "77"))) (RegexConcat (RegexUnion (RegexStar (Str2Reg "4")) (RegexPlus (Str2Reg "55"))) (RegexConcat (RegexStar (RegexPlus (Str2Reg "333"))) (RegexConcat (RegexPlus (RegexPlus (Str2Reg "2"))) (RegexConcat (RegexPlus (RegexPlus (Str2Reg "111"))) (RegexStar (RegexPlus (Str2Reg "00"))))))))))))))
(assert (RegexIn var0 (RegexConcat (RegexStar (RegexPlus (Str2Reg "kkk"))) (RegexConcat (RegexUnion (RegexUnion (Str2Reg "ggg") (Str2Reg "hhh")) (RegexUnion (Str2Reg "i") (Str2Reg "jjj"))) (RegexConcat (RegexPlus (RegexPlus (Str2Reg "fff"))) (RegexConcat (RegexPlus (RegexUnion (Str2Reg "dd") (Str2Reg "eee"))) (RegexConcat (RegexStar (RegexPlus (Str2Reg "c"))) (RegexConcat (RegexUnion (RegexPlus (Str2Reg "999")) (RegexUnion (Str2Reg "aa") (Str2Reg "b"))) (RegexConcat (RegexUnion (RegexPlus (Str2Reg "777")) (RegexPlus (Str2Reg "8"))) (RegexConcat (RegexPlus (RegexUnion (Str2Reg "55") (Str2Reg "666"))) (RegexConcat (RegexPlus (RegexUnion (Str2Reg "33") (Str2Reg "4"))) (RegexUnion (RegexStar (Str2Reg "000")) (RegexUnion (Str2Reg "111") (Str2Reg "222"))))))))))))))
(assert (RegexIn var0 (RegexConcat (RegexUnion (RegexUnion (Str2Reg "m") (Str2Reg "nn")) (RegexStar (Str2Reg "o"))) (RegexConcat (RegexPlus (RegexUnion (Str2Reg "kk") (Str2Reg "ll"))) (RegexConcat (RegexUnion (RegexUnion (Str2Reg "g") (Str2Reg "hh")) (RegexUnion (Str2Reg "i") (Str2Reg "jj"))) (RegexConcat (RegexUnion (RegexUnion (Str2Reg "ddd") (Str2Reg "eee")) (RegexPlus (Str2Reg "fff"))) (RegexConcat (RegexUnion (RegexPlus (Str2Reg "aa")) (RegexUnion (Str2Reg "b") (Str2Reg "ccc"))) (RegexConcat (RegexPlus (RegexUnion (Str2Reg "8") (Str2Reg "9"))) (RegexConcat (RegexPlus (RegexUnion (Str2Reg "6") (Str2Reg "77"))) (RegexConcat (RegexStar (RegexPlus (Str2Reg "55"))) (RegexConcat (RegexUnion (RegexUnion (Str2Reg "2") (Str2Reg "3")) (RegexStar (Str2Reg "4"))) (RegexStar (RegexUnion (Str2Reg "000") (Str2Reg "11"))))))))))))))
(assert (RegexIn var0 (RegexConcat (RegexUnion (RegexPlus (Str2Reg "d")) (RegexStar (Str2Reg "ee"))) (RegexConcat (RegexStar (RegexStar (Str2Reg "c"))) (RegexConcat (RegexUnion (RegexStar (Str2Reg "aaa")) (RegexPlus (Str2Reg "bb"))) (RegexConcat (RegexUnion (RegexPlus (Str2Reg "888")) (RegexPlus (Str2Reg "99"))) (RegexConcat (RegexPlus (RegexUnion (Str2Reg "6") (Str2Reg "77"))) (RegexConcat (RegexPlus (RegexPlus (Str2Reg "555"))) (RegexConcat (RegexStar (RegexStar (Str2Reg "44"))) (RegexConcat (RegexPlus (RegexStar (Str2Reg "3"))) (RegexConcat (RegexPlus (RegexStar (Str2Reg "222"))) (RegexUnion (RegexPlus (Str2Reg "0")) (RegexPlus (Str2Reg "11"))))))))))))))
(assert (RegexIn var0 (RegexConcat (RegexPlus (RegexUnion (Str2Reg "f") (Str2Reg "ggg"))) (RegexConcat (RegexPlus (RegexPlus (Str2Reg "ee"))) (RegexConcat (RegexUnion (RegexStar (Str2Reg "cc")) (RegexPlus (Str2Reg "dd"))) (RegexConcat (RegexStar (RegexUnion (Str2Reg "aaa") (Str2Reg "b"))) (RegexConcat (RegexPlus (RegexUnion (Str2Reg "888") (Str2Reg "9"))) (RegexConcat (RegexStar (RegexUnion (Str2Reg "666") (Str2Reg "777"))) (RegexConcat (RegexUnion (RegexStar (Str2Reg "44")) (RegexStar (Str2Reg "55"))) (RegexConcat (RegexStar (RegexPlus (Str2Reg "3"))) (RegexConcat (RegexUnion (RegexStar (Str2Reg "11")) (RegexStar (Str2Reg "22"))) (RegexStar (RegexStar (Str2Reg "00"))))))))))))))
(check-sat)